p min 49 520
n 26 -769076.0
n 27 30492.0
n 28 30492.0
n 29 30492.0
n 30 30492.0
n 31 30492.0
n 32 30492.0
n 34 33880.0
n 35 37268.0
n 37 50820.0
n 38 47432.0
n 39 47432.0
n 40 47432.0
n 42 20328.0
n 43 115192.0
n 44 37268.0
n 45 23716.0
n 46 125356.0
a 0 1 0 263174.0 4327.0
a 0 1 0 263174.0 3788.0
a 0 2 0 263174.0 3629.0
a 0 3 0 263174.0 3585.0
a 0 4 0 769076.0 1128.0
a 0 4 0 0.0 0.0
a 0 8 0 263174.0 137105.0
a 0 42 0 263174.0 133919.0
a 0 42 0 0.0 0.0
a 0 1 0 0.0 0.0
a 0 1 0 0.0 0.0
a 0 2 0 263174.0 3919.0
a 0 2 0 0.0 0.0
a 0 2 0 0.0 0.0
a 0 3 0 263174.0 3721.0
a 0 3 0 0.0 0.0
a 0 3 0 0.0 0.0
a 0 4 0 769076.0 1124.0
a 0 4 0 0.0 0.0
a 0 8 0 0.0 0.0
a 0 8 0 0.0 0.0
a 0 8 0 263174.0 136167.0
a 0 42 0 263174.0 144295.0
a 0 42 0 0.0 0.0
a 1 2 0 263174.0 4335.0
a 1 0 0 0.0 0.0
a 1 0 0 0.0 0.0
a 1 0 0 263174.0 3788.0
a 1 0 0 263174.0 4327.0
a 1 2 0 263174.0 4220.0
a 1 3 0 263174.0 4293.0
a 1 4 0 769076.0 1188.0
a 1 20 0 263174.0 339378.0
a 1 39 0 263174.0 279001.0
a 1 2 0 0.0 0.0
a 1 2 0 0.0 0.0
a 1 3 0 263174.0 4270.0
a 1 3 0 0.0 0.0
a 1 3 0 0.0 0.0
a 1 4 0 769076.0 1174.0
a 1 4 0 0.0 0.0
a 1 4 0 0.0 0.0
a 1 20 0 263174.0 340078.0
a 1 20 0 0.0 0.0
a 1 20 0 0.0 0.0
a 1 39 0 263174.0 259685.0
a 1 39 0 0.0 0.0
a 1 39 0 0.0 0.0
a 2 3 0 263174.0 4040.0
a 2 1 0 0.0 0.0
a 2 0 0 0.0 0.0
a 2 1 0 0.0 0.0
a 2 0 0 0.0 0.0
a 2 0 0 263174.0 3919.0
a 2 0 0 263174.0 3629.0
a 2 1 0 263174.0 4220.0
a 2 1 0 263174.0 4335.0
a 2 3 0 263174.0 3178.0
a 2 4 0 769076.0 1111.0
a 2 16 0 263174.0 144338.0
a 2 32 0 263174.0 263848.0
a 2 3 0 0.0 0.0
a 2 3 0 0.0 0.0
a 2 4 0 769076.0 1108.0
a 2 4 0 0.0 0.0
a 2 4 0 0.0 0.0
a 2 16 0 0.0 0.0
a 2 16 0 0.0 0.0
a 2 16 0 263174.0 139216.0
a 2 32 0 263174.0 254989.0
a 2 32 0 0.0 0.0
a 2 32 0 0.0 0.0
a 3 27 0 263174.0 261109.0
a 3 2 0 0.0 0.0
a 3 0 0 0.0 0.0
a 3 1 0 0.0 0.0
a 3 2 0 0.0 0.0
a 3 0 0 0.0 0.0
a 3 0 0 263174.0 3721.0
a 3 0 0 263174.0 3585.0
a 3 1 0 0.0 0.0
a 3 1 0 263174.0 4270.0
a 3 1 0 263174.0 4293.0
a 3 2 0 263174.0 3178.0
a 3 2 0 263174.0 4040.0
a 3 4 0 769076.0 1105.0
a 3 14 0 263174.0 129683.0
a 3 27 0 263174.0 255026.0
a 3 4 0 769076.0 1096.0
a 3 4 0 0.0 0.0
a 3 4 0 0.0 0.0
a 3 14 0 263174.0 132087.0
a 3 14 0 0.0 0.0
a 3 14 0 0.0 0.0
a 3 27 0 0.0 0.0
a 3 27 0 0.0 0.0
a 4 0 0 0.0 0.0
a 4 0 0 769076.0 1124.0
a 4 1 0 0.0 0.0
a 4 2 0 0.0 0.0
a 4 3 0 0.0 0.0
a 4 0 0 0.0 0.0
a 4 0 0 769076.0 1128.0
a 4 1 0 0.0 0.0
a 4 1 0 769076.0 1174.0
a 4 1 0 769076.0 1188.0
a 4 2 0 0.0 0.0
a 4 2 0 769076.0 1108.0
a 4 2 0 769076.0 1111.0
a 4 3 0 0.0 0.0
a 4 3 0 769076.0 1096.0
a 4 3 0 769076.0 1105.0
a 5 6 0 526347.0 3227.0
a 5 6 0 526347.0 3971.0
a 5 7 0 769076.0 1006.0
a 5 7 0 0.0 0.0
a 5 10 0 263174.0 304374.0
a 5 20 0 263174.0 48233.0
a 5 6 0 0.0 0.0
a 5 6 0 0.0 0.0
a 5 7 0 769076.0 1012.0
a 5 7 0 0.0 0.0
a 5 10 0 263174.0 284078.0
a 5 10 0 0.0 0.0
a 5 10 0 0.0 0.0
a 5 20 0 263174.0 48651.0
a 5 20 0 0.0 0.0
a 5 20 0 0.0 0.0
a 6 29 0 263174.0 91252.0
a 6 5 0 0.0 0.0
a 6 5 0 0.0 0.0
a 6 5 0 526347.0 3971.0
a 6 5 0 526347.0 3227.0
a 6 7 0 769076.0 1068.0
a 6 29 0 263174.0 93402.0
a 6 37 0 263174.0 84817.0
a 6 7 0 769076.0 1069.0
a 6 7 0 0.0 0.0
a 6 7 0 0.0 0.0
a 6 29 0 0.0 0.0
a 6 29 0 0.0 0.0
a 6 37 0 263174.0 82781.0
a 6 37 0 0.0 0.0
a 6 37 0 0.0 0.0
a 7 5 0 0.0 0.0
a 7 5 0 769076.0 1012.0
a 7 6 0 0.0 0.0
a 7 5 0 0.0 0.0
a 7 5 0 769076.0 1006.0
a 7 6 0 0.0 0.0
a 7 6 0 769076.0 1069.0
a 7 6 0 769076.0 1068.0
a 8 9 0 263174.0 4519.0
a 8 0 0 0.0 0.0
a 8 0 0 263174.0 136167.0
a 8 0 0 263174.0 137105.0
a 8 0 0 0.0 0.0
a 8 9 0 263174.0 3837.0
a 8 10 0 263174.0 5046.0
a 8 11 0 263174.0 7341.0
a 8 12 0 769076.0 1194.0
a 8 12 0 0.0 0.0
a 8 25 0 263174.0 382486.0
a 8 9 0 0.0 0.0
a 8 9 0 0.0 0.0
a 8 10 0 263174.0 4232.0
a 8 10 0 0.0 0.0
a 8 10 0 0.0 0.0
a 8 11 0 263174.0 5005.0
a 8 11 0 0.0 0.0
a 8 11 0 0.0 0.0
a 8 12 0 769076.0 1204.0
a 8 12 0 0.0 0.0
a 8 25 0 263174.0 381946.0
a 8 25 0 0.0 0.0
a 8 25 0 0.0 0.0
a 9 10 0 263174.0 4884.0
a 9 8 0 0.0 0.0
a 9 8 0 0.0 0.0
a 9 8 0 263174.0 3837.0
a 9 8 0 263174.0 4519.0
a 9 10 0 263174.0 4408.0
a 9 11 0 263174.0 6127.0
a 9 12 0 769076.0 1295.0
a 9 14 0 263174.0 133907.0
a 9 17 0 263174.0 157831.0
a 9 35 0 263174.0 264803.0
a 9 10 0 0.0 0.0
a 9 10 0 0.0 0.0
a 9 11 0 263174.0 4954.0
a 9 11 0 0.0 0.0
a 9 11 0 0.0 0.0
a 9 12 0 769076.0 1296.0
a 9 12 0 0.0 0.0
a 9 12 0 0.0 0.0
a 9 14 0 263174.0 133849.0
a 9 14 0 0.0 0.0
a 9 14 0 0.0 0.0
a 9 17 0 263174.0 159089.0
a 9 17 0 0.0 0.0
a 9 17 0 0.0 0.0
a 9 35 0 263174.0 264581.0
a 9 35 0 0.0 0.0
a 9 35 0 0.0 0.0
a 10 28 0 263174.0 229598.0
a 10 9 0 0.0 0.0
a 10 5 0 0.0 0.0
a 10 8 0 0.0 0.0
a 10 9 0 0.0 0.0
a 10 5 0 0.0 0.0
a 10 5 0 263174.0 284078.0
a 10 5 0 263174.0 304374.0
a 10 8 0 0.0 0.0
a 10 8 0 263174.0 4232.0
a 10 8 0 263174.0 5046.0
a 10 9 0 263174.0 4408.0
a 10 9 0 263174.0 4884.0
a 10 11 0 263174.0 4225.0
a 10 12 0 769076.0 1285.0
a 10 28 0 263174.0 232326.0
a 10 11 0 263174.0 4495.0
a 10 11 0 0.0 0.0
a 10 11 0 0.0 0.0
a 10 12 0 1032250.0 1282.0
a 10 12 0 526348.0 0.0
a 10 12 0 789522.0 0.0
a 10 28 0 0.0 0.0
a 10 28 0 0.0 0.0
a 11 21 0 263174.0 333245.0
a 11 8 0 0.0 0.0
a 11 9 0 0.0 0.0
a 11 10 0 0.0 0.0
a 11 8 0 0.0 0.0
a 11 8 0 263174.0 5005.0
a 11 8 0 263174.0 7341.0
a 11 9 0 0.0 0.0
a 11 9 0 263174.0 4954.0
a 11 9 0 263174.0 6127.0
a 11 10 0 0.0 0.0
a 11 10 0 263174.0 4495.0
a 11 10 0 263174.0 4225.0
a 11 12 0 769076.0 1460.0
a 11 21 0 263174.0 332562.0
a 11 31 0 263174.0 233885.0
a 11 38 0 263174.0 239905.0
a 11 12 0 769076.0 1463.0
a 11 12 0 0.0 0.0
a 11 12 0 0.0 0.0
a 11 21 0 0.0 0.0
a 11 21 0 0.0 0.0
a 11 31 0 263174.0 232309.0
a 11 31 0 0.0 0.0
a 11 31 0 0.0 0.0
a 11 38 0 263174.0 237886.0
a 11 38 0 0.0 0.0
a 11 38 0 0.0 0.0
a 12 8 0 0.0 0.0
a 12 8 0 769076.0 1204.0
a 12 9 0 0.0 0.0
a 12 10 0 0.0 0.0
a 12 11 0 0.0 0.0
a 12 8 0 0.0 0.0
a 12 8 0 769076.0 1194.0
a 12 9 0 0.0 0.0
a 12 9 0 769076.0 1296.0
a 12 9 0 769076.0 1295.0
a 12 10 0 -263174.0 0.0
a 12 10 0 242728.0 1282.0
a 12 10 0 -20446.0 1285.0
a 12 11 0 0.0 0.0
a 12 11 0 769076.0 1463.0
a 12 11 0 769076.0 1460.0
a 13 14 0 526347.0 4450.0
a 13 14 0 526347.0 4541.0
a 13 15 0 769076.0 1098.0
a 13 31 0 263174.0 347868.0
a 13 35 0 263174.0 134638.0
a 13 38 0 263174.0 420080.0
a 13 14 0 0.0 0.0
a 13 14 0 0.0 0.0
a 13 15 0 769076.0 1096.0
a 13 15 0 0.0 0.0
a 13 15 0 0.0 0.0
a 13 31 0 263174.0 414037.0
a 13 31 0 0.0 0.0
a 13 31 0 0.0 0.0
a 13 35 0 263174.0 133691.0
a 13 35 0 0.0 0.0
a 13 35 0 0.0 0.0
a 13 38 0 263174.0 392457.0
a 13 38 0 0.0 0.0
a 13 38 0 0.0 0.0
a 14 15 0 769076.0 1085.0
a 14 13 0 0.0 0.0
a 14 3 0 0.0 0.0
a 14 9 0 0.0 0.0
a 14 13 0 0.0 0.0
a 14 3 0 0.0 0.0
a 14 3 0 263174.0 132087.0
a 14 3 0 263174.0 129683.0
a 14 9 0 0.0 0.0
a 14 9 0 263174.0 133849.0
a 14 9 0 263174.0 133907.0
a 14 13 0 526347.0 4541.0
a 14 13 0 526347.0 4450.0
a 14 15 0 769076.0 1085.0
a 14 42 0 222518.0 63128.0
a 14 47 0 263174.0 252988.0
a 14 15 0 0.0 0.0
a 14 15 0 0.0 0.0
a 14 42 0 242846.0 63179.0
a 14 42 0 0.0 0.0
a 14 42 0 -60984.0 0.0
a 14 47 0 526348.0 246476.0
a 14 47 0 526348.0 0.0
a 14 47 0 789522.0 0.0
a 15 14 0 0.0 0.0
a 15 13 0 0.0 0.0
a 15 14 0 0.0 0.0
a 15 13 0 0.0 0.0
a 15 13 0 769076.0 1096.0
a 15 13 0 769076.0 1098.0
a 15 14 0 769076.0 1085.0
a 15 14 0 769076.0 1085.0
a 16 17 0 526347.0 4204.0
a 16 2 0 0.0 0.0
a 16 2 0 263174.0 139216.0
a 16 2 0 263174.0 144338.0
a 16 2 0 0.0 0.0
a 16 17 0 526347.0 4483.0
a 16 18 0 769076.0 1200.0
a 16 18 0 0.0 0.0
a 16 39 0 263174.0 378233.0
a 16 17 0 0.0 0.0
a 16 17 0 0.0 0.0
a 16 18 0 769076.0 1199.0
a 16 18 0 0.0 0.0
a 16 39 0 263174.0 373089.0
a 16 39 0 0.0 0.0
a 16 39 0 0.0 0.0
a 17 45 0 263174.0 132393.0
a 17 16 0 0.0 0.0
a 17 9 0 0.0 0.0
a 17 16 0 0.0 0.0
a 17 9 0 0.0 0.0
a 17 9 0 263174.0 159089.0
a 17 9 0 263174.0 157831.0
a 17 16 0 526347.0 4483.0
a 17 16 0 526347.0 4204.0
a 17 18 0 769076.0 1122.0
a 17 34 0 263174.0 118757.0
a 17 45 0 263174.0 132443.0
a 17 18 0 769076.0 1130.0
a 17 18 0 0.0 0.0
a 17 18 0 0.0 0.0
a 17 34 0 0.0 0.0
a 17 34 0 0.0 0.0
a 17 34 0 263174.0 116718.0
a 17 45 0 0.0 0.0
a 17 45 0 0.0 0.0
a 18 16 0 0.0 0.0
a 18 16 0 769076.0 1199.0
a 18 17 0 0.0 0.0
a 18 16 0 0.0 0.0
a 18 16 0 769076.0 1200.0
a 18 17 0 0.0 0.0
a 18 17 0 769076.0 1130.0
a 18 17 0 769076.0 1122.0
a 19 20 0 263174.0 3447.0
a 19 20 0 263174.0 3740.0
a 19 21 0 263174.0 3674.0
a 19 22 0 263174.0 2238.0
a 19 23 0 769076.0 975.0
a 19 23 0 0.0 0.0
a 19 40 0 263174.0 116810.0
a 19 20 0 0.0 0.0
a 19 20 0 0.0 0.0
a 19 21 0 263174.0 3685.0
a 19 21 0 0.0 0.0
a 19 21 0 0.0 0.0
a 19 22 0 263174.0 2712.0
a 19 22 0 0.0 0.0
a 19 22 0 0.0 0.0
a 19 23 0 769076.0 975.0
a 19 23 0 0.0 0.0
a 19 40 0 263174.0 126042.0
a 19 40 0 0.0 0.0
a 19 40 0 0.0 0.0
a 20 19 0 0.0 0.0
a 20 1 0 0.0 0.0
a 20 5 0 0.0 0.0
a 20 19 0 0.0 0.0
a 20 1 0 0.0 0.0
a 20 1 0 263174.0 340078.0
a 20 1 0 263174.0 339378.0
a 20 5 0 0.0 0.0
a 20 5 0 263174.0 48651.0
a 20 5 0 263174.0 48233.0
a 20 19 0 263174.0 3740.0
a 20 19 0 263174.0 3447.0
a 20 21 0 263174.0 4125.0
a 20 22 0 263174.0 3859.0
a 20 23 0 769076.0 994.0
a 20 21 0 263174.0 3600.0
a 20 21 0 0.0 0.0
a 20 21 0 0.0 0.0
a 20 22 0 263174.0 3160.0
a 20 22 0 0.0 0.0
a 20 22 0 0.0 0.0
a 20 23 0 769076.0 997.0
a 20 23 0 0.0 0.0
a 20 23 0 0.0 0.0
a 21 22 0 263174.0 4386.0
a 21 11 0 0.0 0.0
a 21 11 0 0.0 0.0
a 21 19 0 0.0 0.0
a 21 20 0 0.0 0.0
a 21 11 0 263174.0 332562.0
a 21 11 0 263174.0 333245.0
a 21 19 0 0.0 0.0
a 21 19 0 263174.0 3685.0
a 21 19 0 263174.0 3674.0
a 21 20 0 0.0 0.0
a 21 20 0 263174.0 3600.0
a 21 20 0 263174.0 4125.0
a 21 22 0 263174.0 3859.0
a 21 23 0 769076.0 965.0
a 21 22 0 0.0 0.0
a 21 22 0 0.0 0.0
a 21 23 0 769076.0 968.0
a 21 23 0 0.0 0.0
a 21 23 0 0.0 0.0
a 22 21 0 0.0 0.0
a 22 19 0 0.0 0.0
a 22 20 0 0.0 0.0
a 22 21 0 0.0 0.0
a 22 19 0 0.0 0.0
a 22 19 0 263174.0 2712.0
a 22 19 0 263174.0 2238.0
a 22 20 0 0.0 0.0
a 22 20 0 263174.0 3160.0
a 22 20 0 263174.0 3859.0
a 22 21 0 263174.0 3859.0
a 22 21 0 263174.0 4386.0
a 22 23 0 769076.0 983.0
a 22 27 0 263174.0 124960.0
a 22 23 0 769076.0 986.0
a 22 23 0 0.0 0.0
a 22 23 0 0.0 0.0
a 22 27 0 263174.0 135767.0
a 22 27 0 0.0 0.0
a 22 27 0 0.0 0.0
a 23 19 0 0.0 0.0
a 23 19 0 769076.0 975.0
a 23 20 0 0.0 0.0
a 23 21 0 0.0 0.0
a 23 22 0 0.0 0.0
a 23 19 0 0.0 0.0
a 23 19 0 769076.0 975.0
a 23 20 0 0.0 0.0
a 23 20 0 769076.0 997.0
a 23 20 0 769076.0 994.0
a 23 21 0 0.0 0.0
a 23 21 0 769076.0 968.0
a 23 21 0 769076.0 965.0
a 23 22 0 0.0 0.0
a 23 22 0 769076.0 986.0
a 23 22 0 769076.0 983.0
a 24 30 0 263174.0 706454.0
a 24 25 0 263174.0 2189.0
a 24 26 0 769076.0 1072.0
a 24 30 0 263174.0 758666.0
a 24 47 0 263174.0 1769.0
a 24 48 0 263174.0 2005.0
a 24 25 0 263174.0 2089.0
a 24 25 0 0.0 0.0
a 24 25 0 0.0 0.0
a 24 26 0 769076.0 1028.0
a 24 26 0 0.0 0.0
a 24 26 0 0.0 0.0
a 24 30 0 0.0 0.0
a 24 30 0 0.0 0.0
a 24 47 0 263174.0 1690.0
a 24 47 0 0.0 0.0
a 24 47 0 0.0 0.0
a 24 48 0 263174.0 2104.0
a 24 48 0 0.0 0.0
a 24 48 0 0.0 0.0
a 25 26 0 769076.0 995.0
a 25 8 0 0.0 0.0
a 25 24 0 0.0 0.0
a 25 8 0 0.0 0.0
a 25 8 0 263174.0 381946.0
a 25 8 0 263174.0 382486.0
a 25 24 0 0.0 0.0
a 25 24 0 263174.0 2089.0
a 25 24 0 263174.0 2189.0
a 25 26 0 769076.0 994.0
a 25 47 0 263174.0 3281.0
a 25 48 0 263174.0 2392.0
a 25 26 0 0.0 0.0
a 25 26 0 0.0 0.0
a 25 47 0 263174.0 2108.0
a 25 47 0 0.0 0.0
a 25 47 0 0.0 0.0
a 25 48 0 263174.0 2042.0
a 25 48 0 0.0 0.0
a 25 48 0 0.0 0.0
a 26 25 0 0.0 0.0
a 26 24 0 0.0 0.0
a 26 25 0 0.0 0.0
a 26 24 0 0.0 0.0
a 26 24 0 769076.0 1028.0
a 26 24 0 769076.0 1072.0
a 26 25 0 769076.0 994.0
a 26 25 0 769076.0 995.0
a 26 47 0 202072.0 983.0
a 26 48 0 -687646.0 970.0
a 26 47 0 485574.0 994.0
a 26 47 0 0.0 0.0
a 26 47 0 -850506.0 0.0
a 26 48 0 769076.0 971.0
a 26 48 0 0.0 0.0
a 26 48 0 -485574.0 0.0
a 27 3 0 0.0 0.0
a 27 3 0 0.0 0.0
a 27 22 0 0.0 0.0
a 27 3 0 263174.0 255026.0
a 27 3 0 263174.0 261109.0
a 27 22 0 0.0 0.0
a 27 22 0 263174.0 135767.0
a 27 22 0 263174.0 124960.0
a 27 28 0 263174.0 4101.0
a 27 29 0 263174.0 3699.0
a 27 30 0 263174.0 4158.0
a 27 31 0 263174.0 6498.0
a 27 32 0 263174.0 3370.0
a 27 33 0 769076.0 1036.0
a 27 33 0 0.0 0.0
a 27 43 0 263174.0 72625.0
a 27 43 0 0.0 0.0
a 27 28 0 263174.0 3227.0
a 27 28 0 0.0 0.0
a 27 28 0 0.0 0.0
a 27 29 0 263174.0 4112.0
a 27 29 0 0.0 0.0
a 27 29 0 0.0 0.0
a 27 30 0 263174.0 3939.0
a 27 30 0 0.0 0.0
a 27 30 0 0.0 0.0
a 27 31 0 263174.0 4409.0
a 27 31 0 0.0 0.0
a 27 31 0 0.0 0.0
a 27 32 0 263174.0 3824.0
a 27 32 0 0.0 0.0
a 27 32 0 0.0 0.0
a 27 33 0 769076.0 1037.0
a 27 33 0 0.0 0.0
a 27 43 0 263174.0 76935.0
a 27 43 0 0.0 0.0
a 28 10 0 0.0 0.0
a 28 10 0 0.0 0.0
a 28 27 0 0.0 0.0
a 28 10 0 263174.0 232326.0
a 28 10 0 263174.0 229598.0
a 28 27 0 0.0 0.0
a 28 27 0 263174.0 3227.0
a 28 27 0 263174.0 4101.0
a 28 29 0 263174.0 3592.0
a 28 30 0 263174.0 8000.0
a 28 31 0 263174.0 2176.0
a 28 32 0 263174.0 4405.0
a 28 33 0 769076.0 997.0
a 28 37 0 263174.0 26152.0
a 28 46 0 263174.0 24091.0
a 28 29 0 263174.0 3925.0
a 28 29 0 0.0 0.0
a 28 29 0 0.0 0.0
a 28 30 0 263174.0 3856.0
a 28 30 0 0.0 0.0
a 28 30 0 0.0 0.0
a 28 31 0 263174.0 2135.0
a 28 31 0 0.0 0.0
a 28 31 0 0.0 0.0
a 28 32 0 263174.0 3233.0
a 28 32 0 0.0 0.0
a 28 32 0 0.0 0.0
a 28 33 0 769076.0 998.0
a 28 33 0 0.0 0.0
a 28 33 0 0.0 0.0
a 28 37 0 263174.0 27560.0
a 28 37 0 0.0 0.0
a 28 37 0 0.0 0.0
a 28 46 0 263174.0 24005.0
a 28 46 0 0.0 0.0
a 28 46 0 0.0 0.0
a 29 6 0 0.0 0.0
a 29 6 0 0.0 0.0
a 29 27 0 0.0 0.0
a 29 28 0 0.0 0.0
a 29 6 0 263174.0 93402.0
a 29 6 0 263174.0 91252.0
a 29 27 0 0.0 0.0
a 29 27 0 263174.0 4112.0
a 29 27 0 263174.0 3699.0
a 29 28 0 0.0 0.0
a 29 28 0 263174.0 3925.0
a 29 28 0 263174.0 3592.0
a 29 30 0 263174.0 7589.0
a 29 31 0 263174.0 4299.0
a 29 32 0 263174.0 3781.0
a 29 33 0 769076.0 1058.0
a 29 40 0 263174.0 29503.0
a 29 43 0 177266.0 71591.0
a 29 30 0 263174.0 3842.0
a 29 30 0 0.0 0.0
a 29 30 0 0.0 0.0
a 29 31 0 263174.0 3950.0
a 29 31 0 0.0 0.0
a 29 31 0 0.0 0.0
a 29 32 0 263174.0 4018.0
a 29 32 0 0.0 0.0
a 29 32 0 0.0 0.0
a 29 33 0 769076.0 1058.0
a 29 33 0 0.0 0.0
a 29 33 0 0.0 0.0
a 29 40 0 263174.0 26993.0
a 29 40 0 0.0 0.0
a 29 40 0 0.0 0.0
a 29 43 0 220220.0 71311.0
a 29 43 0 0.0 0.0
a 29 43 0 -128862.0 0.0
a 30 31 0 263174.0 4439.0
a 30 24 0 0.0 0.0
a 30 24 0 0.0 0.0
a 30 27 0 0.0 0.0
a 30 28 0 0.0 0.0
a 30 29 0 0.0 0.0
a 30 24 0 263174.0 758666.0
a 30 24 0 263174.0 706454.0
a 30 27 0 0.0 0.0
a 30 27 0 263174.0 3939.0
a 30 27 0 263174.0 4158.0
a 30 28 0 0.0 0.0
a 30 28 0 263174.0 3856.0
a 30 28 0 263174.0 8000.0
a 30 29 0 0.0 0.0
a 30 29 0 263174.0 3842.0
a 30 29 0 263174.0 7589.0
a 30 31 0 263174.0 5881.0
a 30 32 0 263174.0 3665.0
a 30 33 0 769076.0 1012.0
a 30 44 0 263174.0 65929.0
a 30 31 0 0.0 0.0
a 30 31 0 0.0 0.0
a 30 32 0 263174.0 3155.0
a 30 32 0 0.0 0.0
a 30 32 0 0.0 0.0
a 30 33 0 769076.0 1013.0
a 30 33 0 0.0 0.0
a 30 33 0 0.0 0.0
a 30 44 0 263174.0 65655.0
a 30 44 0 0.0 0.0
a 30 44 0 0.0 0.0
a 31 32 0 263174.0 4133.0
a 31 30 0 0.0 0.0
a 31 11 0 0.0 0.0
a 31 13 0 0.0 0.0
a 31 27 0 0.0 0.0
a 31 28 0 0.0 0.0
a 31 29 0 0.0 0.0
a 31 30 0 0.0 0.0
a 31 11 0 0.0 0.0
a 31 11 0 263174.0 232309.0
a 31 11 0 263174.0 233885.0
a 31 13 0 0.0 0.0
a 31 13 0 263174.0 414037.0
a 31 13 0 263174.0 347868.0
a 31 27 0 0.0 0.0
a 31 27 0 263174.0 4409.0
a 31 27 0 263174.0 6498.0
a 31 28 0 0.0 0.0
a 31 28 0 263174.0 2135.0
a 31 28 0 263174.0 2176.0
a 31 29 0 0.0 0.0
a 31 29 0 263174.0 3950.0
a 31 29 0 263174.0 4299.0
a 31 30 0 263174.0 5881.0
a 31 30 0 263174.0 4439.0
a 31 32 0 263174.0 5546.0
a 31 33 0 769076.0 1124.0
a 31 46 0 263174.0 28602.0
a 31 32 0 0.0 0.0
a 31 32 0 0.0 0.0
a 31 33 0 769076.0 1123.0
a 31 33 0 0.0 0.0
a 31 33 0 0.0 0.0
a 31 46 0 263174.0 25153.0
a 31 46 0 0.0 0.0
a 31 46 0 0.0 0.0
a 32 44 0 263174.0 65444.0
a 32 31 0 0.0 0.0
a 32 2 0 0.0 0.0
a 32 27 0 0.0 0.0
a 32 28 0 0.0 0.0
a 32 29 0 0.0 0.0
a 32 30 0 0.0 0.0
a 32 31 0 0.0 0.0
a 32 2 0 0.0 0.0
a 32 2 0 263174.0 254989.0
a 32 2 0 263174.0 263848.0
a 32 27 0 0.0 0.0
a 32 27 0 263174.0 3824.0
a 32 27 0 263174.0 3370.0
a 32 28 0 0.0 0.0
a 32 28 0 263174.0 3233.0
a 32 28 0 263174.0 4405.0
a 32 29 0 0.0 0.0
a 32 29 0 263174.0 4018.0
a 32 29 0 263174.0 3781.0
a 32 30 0 0.0 0.0
a 32 30 0 263174.0 3155.0
a 32 30 0 263174.0 3665.0
a 32 31 0 263174.0 5546.0
a 32 31 0 263174.0 4133.0
a 32 33 0 769076.0 969.0
a 32 44 0 263174.0 66473.0
a 32 33 0 769076.0 974.0
a 32 33 0 0.0 0.0
a 32 33 0 0.0 0.0
a 32 44 0 0.0 0.0
a 32 44 0 0.0 0.0
a 33 27 0 0.0 0.0
a 33 27 0 769076.0 1037.0
a 33 28 0 0.0 0.0
a 33 29 0 0.0 0.0
a 33 30 0 0.0 0.0
a 33 31 0 0.0 0.0
a 33 32 0 0.0 0.0
a 33 27 0 0.0 0.0
a 33 27 0 769076.0 1036.0
a 33 28 0 0.0 0.0
a 33 28 0 769076.0 998.0
a 33 28 0 769076.0 997.0
a 33 29 0 0.0 0.0
a 33 29 0 769076.0 1058.0
a 33 29 0 769076.0 1058.0
a 33 30 0 0.0 0.0
a 33 30 0 769076.0 1013.0
a 33 30 0 769076.0 1012.0
a 33 31 0 0.0 0.0
a 33 31 0 769076.0 1123.0
a 33 31 0 769076.0 1124.0
a 33 32 0 0.0 0.0
a 33 32 0 769076.0 974.0
a 33 32 0 769076.0 969.0
a 34 35 0 526347.0 5273.0
a 34 17 0 0.0 0.0
a 34 17 0 263174.0 116718.0
a 34 17 0 263174.0 118757.0
a 34 17 0 0.0 0.0
a 34 35 0 526347.0 4710.0
a 34 36 0 769076.0 1148.0
a 34 37 0 8102.0 480413.0
a 34 45 0 263174.0 30528.0
a 34 35 0 0.0 0.0
a 34 35 0 0.0 0.0
a 34 36 0 1217382.0 1149.0
a 34 36 0 896612.0 0.0
a 34 36 0 1344918.0 0.0
a 34 37 0 135638.0 483148.0
a 34 37 0 0.0 0.0
a 34 37 0 -382608.0 0.0
a 34 45 0 263174.0 30741.0
a 34 45 0 0.0 0.0
a 34 45 0 0.0 0.0
a 35 36 0 769076.0 1157.0
a 35 34 0 0.0 0.0
a 35 9 0 0.0 0.0
a 35 13 0 0.0 0.0
a 35 34 0 0.0 0.0
a 35 9 0 0.0 0.0
a 35 9 0 263174.0 264581.0
a 35 9 0 263174.0 264803.0
a 35 13 0 0.0 0.0
a 35 13 0 263174.0 133691.0
a 35 13 0 263174.0 134638.0
a 35 34 0 526347.0 4710.0
a 35 34 0 526347.0 5273.0
a 35 36 0 769076.0 1157.0
a 35 48 0 263174.0 123107.0
a 35 36 0 0.0 0.0
a 35 36 0 0.0 0.0
a 35 48 0 485574.0 121856.0
a 35 48 0 444800.0 0.0
a 35 48 0 667200.0 0.0
a 36 35 0 0.0 0.0
a 36 34 0 0.0 0.0
a 36 35 0 0.0 0.0
a 36 34 0 -448306.0 0.0
a 36 34 0 -127536.0 1149.0
a 36 34 0 -575842.0 1148.0
a 36 35 0 769076.0 1157.0
a 36 35 0 769076.0 1157.0
a 37 38 0 263174.0 4166.0
a 37 6 0 0.0 0.0
a 37 28 0 0.0 0.0
a 37 34 0 255072.0 0.0
a 37 6 0 0.0 0.0
a 37 6 0 263174.0 82781.0
a 37 6 0 263174.0 84817.0
a 37 28 0 0.0 0.0
a 37 28 0 263174.0 27560.0
a 37 28 0 263174.0 26152.0
a 37 34 0 127536.0 0.0
a 37 34 0 263174.0 483148.0
a 37 34 0 645782.0 480413.0
a 37 38 0 263174.0 8519.0
a 37 39 0 263174.0 7118.0
a 37 40 0 263174.0 4395.0
a 37 41 0 554542.0 1107.0
a 37 41 0 -643602.0 0.0
a 37 46 0 263174.0 8710.0
a 37 38 0 0.0 0.0
a 37 38 0 0.0 0.0
a 37 39 0 263174.0 4724.0
a 37 39 0 0.0 0.0
a 37 39 0 0.0 0.0
a 37 40 0 263174.0 4384.0
a 37 40 0 0.0 0.0
a 37 40 0 0.0 0.0
a 37 41 0 340008.0 1111.0
a 37 41 0 0.0 0.0
a 37 46 0 263174.0 8704.0
a 37 46 0 0.0 0.0
a 37 46 0 0.0 0.0
a 38 39 0 263174.0 4905.0
a 38 37 0 0.0 0.0
a 38 11 0 0.0 0.0
a 38 13 0 0.0 0.0
a 38 37 0 0.0 0.0
a 38 11 0 0.0 0.0
a 38 11 0 263174.0 237886.0
a 38 11 0 263174.0 239905.0
a 38 13 0 0.0 0.0
a 38 13 0 263174.0 392457.0
a 38 13 0 263174.0 420080.0
a 38 37 0 263174.0 8519.0
a 38 37 0 263174.0 4166.0
a 38 39 0 263174.0 6038.0
a 38 40 0 263174.0 4531.0
a 38 41 0 769076.0 1154.0
a 38 43 0 263174.0 75858.0
a 38 46 0 263174.0 9065.0
a 38 39 0 0.0 0.0
a 38 39 0 0.0 0.0
a 38 40 0 263174.0 4438.0
a 38 40 0 0.0 0.0
a 38 40 0 0.0 0.0
a 38 41 0 769076.0 1154.0
a 38 41 0 0.0 0.0
a 38 41 0 0.0 0.0
a 38 43 0 263174.0 77030.0
a 38 43 0 0.0 0.0
a 38 43 0 0.0 0.0
a 38 46 0 263174.0 9022.0
a 38 46 0 0.0 0.0
a 38 46 0 0.0 0.0
a 39 40 0 263174.0 4754.0
a 39 38 0 0.0 0.0
a 39 1 0 0.0 0.0
a 39 16 0 0.0 0.0
a 39 37 0 0.0 0.0
a 39 38 0 0.0 0.0
a 39 1 0 0.0 0.0
a 39 1 0 263174.0 259685.0
a 39 1 0 263174.0 279001.0
a 39 16 0 0.0 0.0
a 39 16 0 263174.0 373089.0
a 39 16 0 263174.0 378233.0
a 39 37 0 0.0 0.0
a 39 37 0 263174.0 4724.0
a 39 37 0 263174.0 7118.0
a 39 38 0 263174.0 6038.0
a 39 38 0 263174.0 4905.0
a 39 40 0 263174.0 6214.0
a 39 41 0 769076.0 1256.0
a 39 44 0 263174.0 77368.0
a 39 40 0 0.0 0.0
a 39 40 0 0.0 0.0
a 39 41 0 769076.0 1257.0
a 39 41 0 0.0 0.0
a 39 41 0 0.0 0.0
a 39 44 0 263174.0 77594.0
a 39 44 0 0.0 0.0
a 39 44 0 0.0 0.0
a 40 46 0 263174.0 8665.0
a 40 39 0 0.0 0.0
a 40 19 0 0.0 0.0
a 40 29 0 0.0 0.0
a 40 37 0 0.0 0.0
a 40 38 0 0.0 0.0
a 40 39 0 0.0 0.0
a 40 19 0 0.0 0.0
a 40 19 0 263174.0 126042.0
a 40 19 0 263174.0 116810.0
a 40 29 0 0.0 0.0
a 40 29 0 263174.0 26993.0
a 40 29 0 263174.0 29503.0
a 40 37 0 0.0 0.0
a 40 37 0 263174.0 4384.0
a 40 37 0 263174.0 4395.0
a 40 38 0 0.0 0.0
a 40 38 0 263174.0 4438.0
a 40 38 0 263174.0 4531.0
a 40 39 0 263174.0 6214.0
a 40 39 0 263174.0 4754.0
a 40 41 0 769076.0 1097.0
a 40 46 0 263174.0 8459.0
a 40 41 0 769076.0 1099.0
a 40 41 0 0.0 0.0
a 40 41 0 0.0 0.0
a 40 46 0 0.0 0.0
a 40 46 0 0.0 0.0
a 41 37 0 214534.0 0.0
a 41 37 0 1412678.0 1111.0
a 41 38 0 0.0 0.0
a 41 39 0 0.0 0.0
a 41 40 0 0.0 0.0
a 41 37 0 429068.0 0.0
a 41 37 0 769076.0 1107.0
a 41 38 0 0.0 0.0
a 41 38 0 769076.0 1154.0
a 41 38 0 769076.0 1154.0
a 41 39 0 0.0 0.0
a 41 39 0 769076.0 1257.0
a 41 39 0 769076.0 1256.0
a 41 40 0 0.0 0.0
a 41 40 0 769076.0 1099.0
a 41 40 0 769076.0 1097.0
a 42 0 0 0.0 0.0
a 42 0 0 263174.0 144295.0
a 42 14 0 40656.0 0.0
a 42 0 0 0.0 0.0
a 42 0 0 263174.0 133919.0
a 42 14 0 20328.0 0.0
a 42 14 0 263174.0 63179.0
a 42 14 0 324158.0 63128.0
a 43 27 0 0.0 0.0
a 43 27 0 263174.0 76935.0
a 43 29 0 85908.0 0.0
a 43 38 0 0.0 0.0
a 43 27 0 0.0 0.0
a 43 27 0 263174.0 72625.0
a 43 29 0 42954.0 0.0
a 43 29 0 263174.0 71311.0
a 43 29 0 392036.0 71591.0
a 43 38 0 0.0 0.0
a 43 38 0 263174.0 77030.0
a 43 38 0 263174.0 75858.0
a 44 32 0 0.0 0.0
a 44 30 0 0.0 0.0
a 44 32 0 0.0 0.0
a 44 39 0 0.0 0.0
a 44 30 0 0.0 0.0
a 44 30 0 263174.0 65655.0
a 44 30 0 263174.0 65929.0
a 44 32 0 263174.0 66473.0
a 44 32 0 263174.0 65444.0
a 44 39 0 0.0 0.0
a 44 39 0 263174.0 77594.0
a 44 39 0 263174.0 77368.0
a 45 17 0 0.0 0.0
a 45 17 0 0.0 0.0
a 45 34 0 0.0 0.0
a 45 17 0 263174.0 132443.0
a 45 17 0 263174.0 132393.0
a 45 34 0 0.0 0.0
a 45 34 0 263174.0 30741.0
a 45 34 0 263174.0 30528.0
a 46 40 0 0.0 0.0
a 46 28 0 0.0 0.0
a 46 31 0 0.0 0.0
a 46 37 0 0.0 0.0
a 46 38 0 0.0 0.0
a 46 40 0 0.0 0.0
a 46 28 0 0.0 0.0
a 46 28 0 263174.0 24005.0
a 46 28 0 263174.0 24091.0
a 46 31 0 0.0 0.0
a 46 31 0 263174.0 25153.0
a 46 31 0 263174.0 28602.0
a 46 37 0 0.0 0.0
a 46 37 0 263174.0 8704.0
a 46 37 0 263174.0 8710.0
a 46 38 0 0.0 0.0
a 46 38 0 263174.0 9022.0
a 46 38 0 263174.0 9065.0
a 46 40 0 263174.0 8459.0
a 46 40 0 263174.0 8665.0
a 47 48 0 263174.0 1856.0
a 47 14 0 0.0 0.0
a 47 24 0 0.0 0.0
a 47 25 0 0.0 0.0
a 47 26 0 567004.0 0.0
a 47 14 0 -263174.0 0.0
a 47 14 0 -263174.0 246476.0
a 47 14 0 -526348.0 252988.0
a 47 24 0 0.0 0.0
a 47 24 0 263174.0 1690.0
a 47 24 0 263174.0 1769.0
a 47 25 0 0.0 0.0
a 47 25 0 263174.0 2108.0
a 47 25 0 263174.0 3281.0
a 47 26 0 283502.0 0.0
a 47 26 0 769076.0 994.0
a 47 26 0 1619582.0 983.0
a 47 48 0 263174.0 1855.0
a 47 48 0 0.0 0.0
a 47 48 0 0.0 0.0
a 48 47 0 0.0 0.0
a 48 24 0 0.0 0.0
a 48 25 0 0.0 0.0
a 48 26 0 1456722.0 0.0
a 48 35 0 0.0 0.0
a 48 47 0 0.0 0.0
a 48 24 0 0.0 0.0
a 48 24 0 263174.0 2104.0
a 48 24 0 263174.0 2005.0
a 48 25 0 0.0 0.0
a 48 25 0 263174.0 2042.0
a 48 25 0 263174.0 2392.0
a 48 26 0 0.0 0.0
a 48 26 0 769076.0 971.0
a 48 26 0 1254650.0 970.0
a 48 35 0 -222400.0 0.0
a 48 35 0 -181626.0 121856.0
a 48 35 0 -404026.0 123107.0
a 48 47 0 263174.0 1855.0
a 48 47 0 263174.0 1856.0
